NAME: random-53-6398
TYPE: TSP
COMMENT: size=53 seed=6398
DIMENSION: 108
EDGE_WEIGHT_TYPE: EUC_2D
NODE_COORD_SECTION
+0 186 975
-0 186 975
+1 164 456
-1 412 523
+2 492 122
-2 29 689
+3 364 729
-3 552 511
+4 928 439
-4 229 307
+5 457 991
-5 286 542
+6 669 297
-6 966 243
+7 101 888
-7 478 976
+8 463 225
-8 657 234
+9 233 469
-9 462 719
+10 606 414
-10 333 835
+11 334 655
-11 217 198
+12 844 662
-12 510 662
+13 697 286
-13 58 965
+14 888 287
-14 341 5
+15 167 199
-15 461 25
+16 934 974
-16 652 124
+17 983 597
-17 263 759
+18 246 812
-18 587 735
+19 134 288
-19 966 493
+20 258 518
-20 995 10
+21 681 141
-21 420 65
+22 580 409
-22 147 481
+23 475 935
-23 989 704
+24 476 325
-24 543 233
+25 659 535
-25 119 964
+26 525 405
-26 395 489
+27 919 509
-27 918 749
+28 954 44
-28 671 215
+29 282 235
-29 180 378
+30 926 554
-30 119 634
+31 573 237
-31 974 442
+32 809 819
-32 838 633
+33 869 823
-33 470 198
+34 151 255
-34 926 975
+35 395 274
-35 698 977
+36 891 515
-36 891 984
+37 719 513
-37 560 601
+38 328 96
-38 518 932
+39 952 78
-39 71 862
+40 459 332
-40 544 360
+41 617 516
-41 544 436
+42 554 157
-42 115 910
+43 391 785
-43 174 781
+44 407 274
-44 484 195
+45 538 595
-45 31 402
+46 963 311
-46 252 925
+47 754 131
-47 607 925
+48 403 360
-48 505 353
+49 74 322
-49 172 924
+50 136 86
-50 759 26
+51 854 773
-51 32 857
+52 595 750
-52 311 330
+53 45 384
-53 509 12
PRECEDENCE_SECTION
+0 -0
+1 -1
+2 -2
+3 -3
+4 -4
+5 -5
+6 -6
+7 -7
+8 -8
+9 -9
+10 -10
+11 -11
+12 -12
+13 -13
+14 -14
+15 -15
+16 -16
+17 -17
+18 -18
+19 -19
+20 -20
+21 -21
+22 -22
+23 -23
+24 -24
+25 -25
+26 -26
+27 -27
+28 -28
+29 -29
+30 -30
+31 -31
+32 -32
+33 -33
+34 -34
+35 -35
+36 -36
+37 -37
+38 -38
+39 -39
+40 -40
+41 -41
+42 -42
+43 -43
+44 -44
+45 -45
+46 -46
+47 -47
+48 -48
+49 -49
+50 -50
+51 -51
+52 -52
+53 -53
EOF
